NAME : alb1000
COMMENT : Hamiltonian cycle problem (Erbacci) 
TYPE : HCP
DIMENSION : 10
EDGE_DATA_FORMAT : EDGE_LIST
EDGE_DATA_SECTION
     1      2
     1      10
		 1	8
		 1	3
		 1	4
		 1	7
     2      10
     2      3
		 2	8
		 2	7
     3      4
		 3	5
		 3	6
		 3	7
		 3	8
		 3	9
		 3	10
		 4	8
		 4	7
		 5	8
		 5	7
		 6	8
		 7	8
		 7	10
		 8	10
		 9	10
-1
EOF
